GLPSOL--GLPK LP/MIP Solver 5.0
Parameter(s) specified in the command line:
 --lp ../modeles/3_9.lp --log 3_9.log
Reading problem data from '../modeles/3_9.lp'...
40 rows, 60 columns, 204 non-zeros
27 integer variables, all of which are binary
109 lines were read
GLPK Integer Optimizer 5.0
40 rows, 60 columns, 204 non-zeros
27 integer variables, all of which are binary
Preprocessing...
30 constraint coefficient(s) were reduced
40 rows, 57 columns, 201 non-zeros
27 integer variables, all of which are binary
Scaling...
 A: min|aij| =  4.938e-02  max|aij| =  4.000e+00  ratio =  8.100e+01
GM: min|aij| =  3.333e-01  max|aij| =  3.000e+00  ratio =  9.000e+00
EQ: min|aij| =  1.111e-01  max|aij| =  1.000e+00  ratio =  9.000e+00
2N: min|aij| =  9.877e-02  max|aij| =  1.620e+00  ratio =  1.640e+01
Constructing initial basis...
Size of triangular part is 40
Solving LP relaxation...
GLPK Simplex Optimizer 5.0
40 rows, 57 columns, 201 non-zeros
      0: obj =   6.000000000e+00 inf =   1.450e+01 (7)
     14: obj =   4.312500000e-01 inf =   0.000e+00 (0)
*    42: obj =  -1.625000000e+00 inf =   4.738e-16 (0)
OPTIMAL LP SOLUTION FOUND
Integer optimization begins...
Long-step dual simplex will be used
+    42: mip =     not found yet >=              -inf        (1; 0)
+    49: >>>>>  -1.625000000e+00 >=  -1.625000000e+00   0.0% (6; 0)
+    49: mip =  -1.625000000e+00 >=     tree is empty   0.0% (0; 11)
INTEGER OPTIMAL SOLUTION FOUND
Time used:   0.0 secs
Memory used: 0.1 Mb (137707 bytes)
